6 2
2412 2151 2127 2853 577 1598
0 1027 2332 3943 812 2952 1672
2765 0 1674 2461 594 455 920
3554 95 0 2666 950 1988 2625
3316 481 278 0 320 3881 77
3073 705 793 668 0 2354 3121
3773 3768 210 1137 3200 0 1491
1395 1789 2650 1080 997 3610 0